% seed = 0

mint = 20;
% maxt = 76;

nActs = 32;
dur = [0,3,1,5,2,1,2,3,3,2,2,2,2,1,2,2,4,3,3,3,4,1,2,2,4,4,3,2,3,2,3,0];

nSkills = 10;
sreq = [| 0,0,0,0,0,0,0,0,0,0,
	| 0,0,1,0,1,0,0,0,0,0,
	| 0,0,0,1,2,0,2,0,0,0,
	| 1,0,1,0,0,0,0,1,0,0,
	| 3,1,2,2,2,0,0,0,1,0,
	| 2,0,0,1,1,0,2,1,2,2,
	| 0,1,0,1,3,1,2,0,0,0,
	| 3,1,1,0,0,1,2,0,0,1,
	| 0,0,2,0,0,1,1,0,1,1,
	| 0,0,2,0,0,1,2,0,1,2,
	| 0,3,2,0,0,0,2,1,0,0,
	| 0,1,0,0,0,0,1,1,1,1,
	| 0,1,0,0,1,0,2,0,1,0,
	| 0,0,0,0,0,1,0,0,0,1,
	| 1,0,0,0,2,1,0,1,1,0,
	| 0,1,1,0,1,0,0,1,0,1,
	| 0,2,0,0,0,0,0,4,0,0,
	| 1,0,4,0,0,1,2,2,0,1,
	| 0,0,0,1,0,0,1,2,0,1,
	| 1,0,1,0,0,2,0,1,0,0,
	| 0,1,3,0,2,1,2,0,0,0,
	| 1,1,0,0,1,1,2,0,1,1,
	| 1,2,1,0,1,1,1,1,0,0,
	| 0,0,2,2,0,0,1,0,1,0,
	| 0,0,2,0,1,0,0,1,0,1,
	| 0,2,1,1,1,0,2,2,0,0,
	| 0,0,0,0,1,0,1,0,0,0,
	| 0,1,0,0,1,0,0,0,0,0,
	| 0,0,1,0,0,0,0,1,1,0,
	| 0,0,0,0,0,0,1,0,1,0,
	| 1,3,0,2,0,0,2,1,0,0,
	| 0,0,0,0,0,0,0,0,0,0, |];

% SumOfsreq = 184;

nResources = 15;
mastery = [| true,true,true,false,false,true,false,true,false,false,
	| true,false,true,true,false,true,false,false,false,true,
	| false,false,true,true,false,false,true,true,false,true,
	| false,true,false,false,false,true,true,false,true,true,
	| false,true,false,true,true,false,true,false,true,false,
	| true,true,false,false,false,true,true,false,false,true,
	| true,false,false,false,true,false,true,true,true,false,
	| false,true,true,false,true,false,false,true,false,true,
	| false,true,true,true,true,false,false,false,true,false,
	| false,true,true,true,false,false,true,true,false,false,
	| true,false,true,false,false,false,true,true,false,true,
	| true,false,false,false,true,true,true,true,false,false,
	| false,true,false,false,true,true,true,true,false,false,
	| false,true,true,false,true,true,false,true,false,false,
	| true,false,true,false,true,false,true,false,true,false, |];

nPrecs = 48;
pred = [1,1,1,2,2,2,3,3,3,4,4,4,5,6,7,8,8,8,9,10,10,11,11,12,13,13,14,15,16,16,17,18,18,19,19,20,20,21,22,23,24,25,26,27,28,29,30,31];
succ = [2,3,4,11,6,15,13,7,8,9,10,5,20,30,27,19,12,27,14,25,16,26,20,14,17,18,17,25,21,22,22,20,22,29,24,25,23,28,23,24,30,30,31,28,31,32,32,32];

nUnrels = 291;
unpred = [2,2,2,2,2,2,2,2,2,2,2,2,2,2,2,2,2,2,2,3,3,3,3,3,3,3,3,3,3,4,4,4,4,4,4,4,4,4,4,4,4,5,5,5,5,5,5,5,5,5,5,5,5,5,5,5,5,5,5,5,5,5,6,6,6,6,6,6,6,6,6,6,6,6,6,6,6,6,6,6,6,6,6,6,6,6,7,7,7,7,7,7,7,7,7,7,7,7,7,7,7,7,7,7,7,7,7,8,8,8,8,8,8,8,8,8,8,8,9,9,9,9,9,9,9,9,9,9,9,9,9,9,9,9,10,10,10,10,10,10,10,10,10,10,10,10,11,11,11,11,11,11,11,11,11,11,11,11,11,12,12,12,12,12,12,12,12,12,12,12,12,12,13,13,13,13,13,13,13,13,13,13,14,14,14,14,14,14,14,14,14,14,14,14,15,15,15,15,15,15,15,15,15,15,15,15,15,15,16,16,16,16,16,16,16,16,17,17,17,17,17,17,17,17,17,17,18,18,18,18,18,18,18,19,19,19,19,19,19,19,19,19,20,20,20,20,20,20,20,21,21,21,21,21,21,21,21,22,22,22,22,22,22,23,23,23,23,23,23,24,24,24,24,24,24,25,25,25,25,25,26,26,26,26,27,27,28,28,29,29,30];
unsucc = [3,4,5,7,8,9,10,12,13,14,16,17,18,19,21,22,27,28,29,4,5,6,9,10,11,15,16,21,26,6,7,8,11,12,13,15,18,19,26,27,29,6,7,8,9,10,11,12,13,14,15,16,17,18,19,21,22,26,27,28,29,31,7,8,9,10,11,12,13,14,15,16,17,18,19,20,21,22,23,24,25,26,27,28,29,31,8,9,10,11,12,13,14,15,16,17,18,19,20,21,22,23,24,25,26,29,30,9,10,11,13,15,16,18,20,21,25,26,10,11,12,13,15,16,18,19,20,21,25,26,27,28,29,31,11,12,13,14,15,17,18,19,20,26,27,29,12,13,14,15,16,17,18,19,21,22,27,28,29,13,15,16,18,19,20,21,25,26,27,28,29,31,14,15,16,19,21,26,27,28,29,31,15,16,18,19,20,21,25,26,27,28,29,31,16,17,18,19,20,21,22,23,24,26,27,28,29,31,17,18,19,20,25,26,27,29,18,19,20,21,25,26,27,28,29,31,19,21,26,27,28,29,31,20,21,22,23,25,26,27,28,31,21,22,26,27,28,29,31,22,23,24,25,26,27,29,30,25,26,27,28,29,31,25,26,27,28,29,31,25,26,27,28,29,31,26,27,28,29,31,27,28,29,30,29,30,29,30,30,31,31];

USEFUL_RES = [{},
	{1,2,3,5,7,8,9,10,11,12,13,14,15},
	{2,3,4,5,6,7,8,9,10,11,12,13,14,15},
	{1,2,3,6,7,8,9,10,11,12,13,14,15},
	{1,2,3,4,5,6,7,8,9,10,11,12,13,14,15},
	{1,2,3,4,5,6,7,8,9,10,11,12,13,14,15},
	{1,2,3,4,5,6,7,8,9,10,11,12,13,14,15},
	{1,2,3,4,5,6,7,8,9,10,11,12,13,14,15},
	{1,2,3,4,5,6,7,8,9,10,11,12,13,14,15},
	{1,2,3,4,5,6,7,8,9,10,11,12,13,14,15},
	{1,2,3,4,5,6,7,8,9,10,11,12,13,14,15},
	{1,2,3,4,5,6,7,8,9,10,11,12,13,14,15},
	{1,3,4,5,6,7,8,9,10,11,12,13,14,15},
	{1,2,3,4,6,8,11,12,13,14},
	{1,2,3,4,5,6,7,8,9,10,11,12,13,14,15},
	{1,2,3,4,5,6,7,8,9,10,11,12,13,14,15},
	{1,3,4,5,6,7,8,9,10,11,12,13,14},
	{1,2,3,4,5,6,7,8,9,10,11,12,13,14,15},
	{1,2,3,4,5,6,7,8,9,10,11,12,13,14,15},
	{1,2,3,4,6,7,8,9,10,11,12,13,14,15},
	{1,2,3,4,5,6,7,8,9,10,11,12,13,14,15},
	{1,2,3,4,5,6,7,8,9,10,11,12,13,14,15},
	{1,2,3,4,5,6,7,8,9,10,11,12,13,14,15},
	{1,2,3,4,5,6,7,8,9,10,11,12,13,14,15},
	{1,2,3,4,5,6,7,8,9,10,11,12,13,14,15},
	{1,2,3,4,5,6,7,8,9,10,11,12,13,14,15},
	{3,4,5,6,7,8,9,10,11,12,13,14,15},
	{1,4,5,6,7,8,9,10,12,13,14,15},
	{1,2,3,4,5,7,8,9,10,11,12,13,14,15},
	{3,4,5,6,7,9,10,11,12,13,15},
	{1,2,3,4,5,6,7,8,9,10,11,12,13,14,15},
	{}];

POTENTIAL_ACT = [{2,4,5,6,7,8,9,10,11,12,13,14,15,16,17,18,19,20,21,22,23,24,25,26,28,29,31},
	{2,3,4,5,6,7,8,9,10,11,12,14,15,16,18,19,20,21,22,23,24,25,26,29,31},
	{2,3,4,5,6,7,8,9,10,11,12,13,14,15,16,17,18,19,20,21,22,23,24,25,26,27,29,30,31},
	{3,5,6,7,8,9,10,11,12,13,14,15,16,17,18,19,20,21,22,23,24,25,26,27,28,29,30,31},
	{2,3,5,6,7,8,9,10,11,12,13,15,16,17,18,19,21,22,23,24,25,26,27,28,29,30,31},
	{3,4,5,6,7,8,9,10,11,12,13,14,15,16,17,18,19,20,21,22,23,24,25,26,27,28,30,31},
	{2,3,4,5,6,7,8,9,10,11,12,13,15,16,17,18,19,20,21,22,23,24,25,26,27,28,29,30,31},
	{2,3,4,5,6,7,8,9,10,11,12,13,14,15,16,17,18,19,20,21,22,23,24,25,26,27,28,29,31},
	{2,3,4,5,6,7,8,9,10,11,12,13,15,16,17,18,19,20,21,22,23,24,25,26,27,28,29,30,31},
	{2,3,4,5,6,7,8,9,10,11,12,13,15,16,17,18,19,20,21,22,23,24,25,26,27,28,29,30,31},
	{2,3,4,5,6,7,8,9,10,11,12,13,14,15,16,17,18,19,20,21,22,23,24,25,26,27,29,30,31},
	{2,3,4,5,6,7,8,9,10,11,12,13,14,15,16,17,18,19,20,21,22,23,24,25,26,27,28,29,30,31},
	{2,3,4,5,6,7,8,9,10,11,12,13,14,15,16,17,18,19,20,21,22,23,24,25,26,27,28,29,30,31},
	{2,3,4,5,6,7,8,9,10,11,12,13,14,15,16,17,18,19,20,21,22,23,24,25,26,27,28,29,31},
	{2,3,4,5,6,7,8,9,10,11,12,13,15,16,18,19,20,21,22,23,24,25,26,27,28,29,30,31}];
